120 4974.0 5600.0 6108.5 6593.0 7070.0
180 3465.0 4877.0 5510.6 6262.0 7070.0
240 3465.0 4134.0 4629.9 5334.0 5733.0
300 3045.0 3739.0 4258.8 4681.0 5831.0
360 3022.0 3556.0 3990.6 4494.0 5176.0
420 2457.0 3518.0 3833.4 4667.0 5181.0
480 2146.0 3429.0 3761.1 4624.0 5704.0
540 2086.0 3016.0 3490.9 3739.0 4986.0
600 1607.0 3016.0 3281.5 3518.0 5273.0
660 1668.0 2840.0 3151.1 3518.0 4825.0
720 1505.0 3016.0 3198.9 3739.0 4825.0
780 1505.0 2532.0 3196.8 3739.0 4825.0
840 1447.0 2314.0 2980.1 3739.0 4283.0
900 1367.0 2314.0 2860.0 3739.0 4135.0
960 1367.0 2146.0 2701.1 3265.0 4136.0
1020 1367.0 2043.0 2531.1 2920.0 4136.0
1080 1367.0 2043.0 2439.3 2920.0 3739.0
1140 1367.0 2043.0 2373.6 2920.0 3395.0
1200 1367.0 2043.0 2403.0 3012.0 3313.0
1260 1367.0 2043.0 2358.1 2920.0 3136.0
1320 1367.0 1893.0 2206.7 2266.0 3264.0
1380 1367.0 1563.0 2175.3 2647.0 3088.0
1440 1367.0 1529.0 2003.2 2414.0 2831.0
1500 1367.0 1563.0 2031.1 2414.0 3264.0
1560 1367.0 1563.0 1975.8 2414.0 2830.0
1620 1172.0 1493.0 1932.7 2414.0 2830.0
1680 1172.0 1367.0 1824.9 2224.0 2594.0
1740 1081.0 1367.0 1811.3 2097.0 2485.0
1800 1081.0 1367.0 1618.8 1958.0 2088.0
1860 1081.0 1438.0 1693.7 1959.0 2097.0
1920 1081.0 1355.0 1675.6 2097.0 2478.0
1980 1081.0 1355.0 1638.7 1959.0 2226.0
2040 1081.0 1355.0 1612.9 1959.0 2097.0
2100 1081.0 1355.0 1638.7 1959.0 2226.0
2160 1081.0 1203.0 1573.7 1940.0 2246.0
2220 911.0 1199.0 1510.9 1940.0 2097.0
2280 911.0 1199.0 1510.9 1940.0 2097.0
2340 911.0 1199.0 1440.2 1893.0 2097.0
2400 911.0 1199.0 1415.0 1707.0 2097.0
2460 911.0 1128.0 1443.5 1707.0 2319.0
2520 911.0 1128.0 1443.5 1707.0 2319.0
2580 911.0 1203.0 1424.1 1665.0 1959.0
2640 911.0 1203.0 1424.1 1665.0 1959.0
2700 898.0 1020.0 1321.5 1641.0 1959.0
2760 898.0 1020.0 1311.1 1537.0 1959.0
2820 898.0 1020.0 1265.6 1443.0 1959.0
2880 911.0 1020.0 1272.1 1443.0 1959.0
2940 911.0 1020.0 1272.1 1443.0 1959.0
3000 911.0 1020.0 1273.0 1443.0 1968.0
3060 661.0 911.0 1112.1 1367.0 1665.0
3120 661.0 849.0 1039.9 1230.0 1452.0
3180 661.0 849.0 1053.7 1230.0 1665.0
3240 661.0 844.0 1028.9 1230.0 1665.0
3300 661.0 844.0 1028.9 1230.0 1665.0
3360 661.0 824.0 1014.9 1230.0 1612.0
3420 661.0 804.0 980.1 1230.0 1367.0
3480 661.0 804.0 976.4 1230.0 1367.0
3540 661.0 849.0 977.1 1081.0 1367.0
3600 661.0 804.0 985.1 1230.0 1367.0
3660 661.0 804.0 976.4 1230.0 1367.0
3720 661.0 804.0 976.4 1230.0 1367.0
3780 661.0 804.0 960.3 1230.0 1367.0
3840 661.0 804.0 960.3 1230.0 1367.0
3900 661.0 804.0 960.3 1230.0 1367.0
3960 661.0 804.0 951.4 1230.0 1367.0
4020 661.0 716.0 939.9 1230.0 1367.0
4080 661.0 716.0 939.9 1230.0 1367.0
4140 661.0 716.0 939.9 1230.0 1367.0
4200 661.0 716.0 943.6 1230.0 1367.0
4260 661.0 716.0 939.9 1230.0 1367.0
4320 661.0 716.0 939.9 1230.0 1367.0
4380 661.0 716.0 939.9 1230.0 1367.0
4440 661.0 716.0 939.9 1230.0 1367.0
4500 661.0 716.0 939.9 1230.0 1367.0
4560 661.0 716.0 914.7 1020.0 1367.0
4620 661.0 716.0 914.7 1020.0 1367.0
4680 661.0 716.0 914.7 1020.0 1367.0
4740 661.0 716.0 914.7 1020.0 1367.0
4800 661.0 716.0 914.7 1020.0 1367.0
4860 661.0 716.0 914.7 1020.0 1367.0
4920 661.0 716.0 914.7 1020.0 1367.0
4980 661.0 716.0 914.7 1020.0 1367.0
5040 661.0 716.0 887.5 978.0 1367.0
5100 661.0 716.0 906.7 978.0 1367.0
5160 643.0 661.0 873.2 940.0 1367.0
5220 643.0 661.0 873.2 940.0 1367.0
5280 643.0 661.0 881.2 1020.0 1367.0
5340 643.0 661.0 881.2 1020.0 1367.0
5400 643.0 661.0 881.2 1020.0 1367.0
5460 643.0 661.0 881.2 1020.0 1367.0
5520 643.0 661.0 881.2 1020.0 1367.0
5580 643.0 661.0 881.2 1020.0 1367.0
5640 643.0 716.0 887.8 1020.0 1367.0
5700 643.0 661.0 881.2 1020.0 1367.0
5760 643.0 661.0 881.2 1020.0 1367.0
5820 643.0 661.0 881.2 1020.0 1367.0
5880 643.0 661.0 881.2 1020.0 1367.0
5940 643.0 661.0 881.2 1020.0 1367.0
6000 643.0 661.0 827.5 849.0 1267.0
6060 643.0 661.0 827.5 849.0 1267.0
6120 643.0 661.0 814.5 849.0 1267.0
6180 643.0 661.0 814.5 849.0 1267.0
6240 643.0 661.0 814.5 849.0 1267.0
6300 643.0 661.0 773.3 849.0 940.0
6360 643.0 661.0 773.3 849.0 940.0
6420 643.0 661.0 773.3 849.0 940.0
6480 643.0 661.0 791.5 849.0 1037.0
6540 643.0 661.0 791.5 849.0 1037.0
6600 643.0 661.0 791.5 849.0 1037.0
6660 643.0 661.0 791.5 849.0 1037.0
6720 643.0 661.0 791.5 849.0 1037.0
6780 643.0 661.0 757.7 824.0 855.0
6840 643.0 661.0 781.7 855.0 940.0
6900 643.0 661.0 773.3 849.0 940.0
6960 643.0 661.0 773.3 849.0 940.0
7020 643.0 661.0 797.0 855.0 1086.0
7080 643.0 661.0 797.0 855.0 1086.0
7140 643.0 661.0 773.3 849.0 940.0
7200 643.0 661.0 773.3 849.0 940.0
7260 643.0 661.0 773.3 849.0 940.0
7320 643.0 661.0 773.3 849.0 940.0
7380 643.0 661.0 773.3 849.0 940.0
7440 643.0 661.0 773.3 849.0 940.0
7500 643.0 661.0 773.3 849.0 940.0
7560 643.0 661.0 773.3 849.0 940.0
7620 643.0 661.0 773.3 849.0 940.0
7680 643.0 661.0 773.3 849.0 940.0
7740 643.0 661.0 773.3 849.0 940.0
7800 643.0 661.0 773.3 849.0 940.0
7860 643.0 661.0 773.3 849.0 940.0
7920 643.0 661.0 773.3 849.0 940.0
7980 643.0 661.0 773.3 849.0 940.0
8040 643.0 661.0 773.3 849.0 940.0
8100 643.0 661.0 773.3 849.0 940.0
8160 643.0 661.0 773.3 849.0 940.0
8220 643.0 661.0 773.3 849.0 940.0
8280 643.0 661.0 773.3 849.0 940.0
8340 643.0 661.0 773.3 849.0 940.0
8400 643.0 661.0 773.3 849.0 940.0
8460 425.0 661.0 735.4 849.0 940.0
8520 643.0 661.0 773.3 849.0 940.0
8580 643.0 661.0 773.3 849.0 940.0
8640 643.0 661.0 773.3 849.0 940.0
8700 643.0 661.0 773.3 849.0 940.0
8760 643.0 661.0 773.3 849.0 940.0
8820 643.0 661.0 773.3 849.0 940.0
8880 643.0 661.0 773.3 849.0 940.0
8940 643.0 661.0 773.3 849.0 940.0
9000 643.0 661.0 773.3 849.0 940.0
9060 643.0 661.0 773.3 849.0 940.0
9120 643.0 661.0 773.3 849.0 940.0
9180 643.0 661.0 773.3 849.0 940.0
9240 643.0 661.0 773.3 849.0 940.0
9300 643.0 661.0 773.3 849.0 940.0
9360 643.0 661.0 773.3 849.0 940.0
9420 643.0 661.0 773.3 849.0 940.0
9480 643.0 661.0 773.3 849.0 940.0
9540 643.0 661.0 773.3 849.0 940.0
9600 643.0 661.0 773.3 849.0 940.0
9660 643.0 661.0 773.3 849.0 940.0
9720 643.0 661.0 773.3 849.0 940.0
9780 643.0 661.0 773.3 849.0 940.0
9840 643.0 661.0 773.3 849.0 940.0
9900 545.0 661.0 745.4 849.0 940.0
9960 545.0 661.0 745.4 849.0 940.0
10020 545.0 661.0 745.4 849.0 940.0
10080 545.0 661.0 745.4 849.0 940.0
10140 545.0 661.0 745.4 849.0 940.0
10200 545.0 661.0 745.4 849.0 940.0
10260 545.0 661.0 745.4 849.0 940.0
10320 545.0 661.0 745.4 849.0 940.0
10380 545.0 661.0 745.4 849.0 940.0
10440 545.0 661.0 745.4 849.0 940.0
10500 545.0 661.0 745.4 849.0 940.0
10560 545.0 661.0 745.4 849.0 940.0
10620 545.0 661.0 745.4 849.0 940.0
10680 545.0 661.0 745.4 849.0 940.0
10740 545.0 661.0 745.4 849.0 940.0
10800 545.0 661.0 745.4 849.0 940.0
10860 545.0 661.0 745.4 849.0 940.0
10920 545.0 661.0 745.4 849.0 940.0
10980 545.0 661.0 745.4 849.0 940.0
11040 545.0 661.0 745.4 849.0 940.0
11100 545.0 661.0 745.4 849.0 940.0
11160 545.0 661.0 745.4 849.0 940.0
11220 545.0 661.0 745.4 849.0 940.0
11280 545.0 661.0 745.4 849.0 940.0
11340 545.0 661.0 745.4 849.0 940.0
11400 545.0 661.0 745.4 849.0 940.0
11460 545.0 661.0 745.4 849.0 940.0
11520 545.0 661.0 745.4 849.0 940.0
11580 545.0 661.0 745.4 849.0 940.0
11640 545.0 661.0 745.4 849.0 940.0
11700 545.0 661.0 745.4 849.0 940.0
11760 545.0 661.0 745.4 849.0 940.0
11820 545.0 661.0 745.4 849.0 940.0
11880 545.0 661.0 745.4 849.0 940.0
11940 545.0 661.0 745.4 849.0 940.0
12000 545.0 661.0 745.4 849.0 940.0
12060 545.0 661.0 745.4 849.0 940.0
12120 545.0 661.0 745.4 849.0 940.0
12180 545.0 661.0 745.4 849.0 940.0
12240 545.0 661.0 745.4 849.0 940.0
12300 545.0 661.0 745.4 849.0 940.0
12360 545.0 661.0 745.4 849.0 940.0
12420 545.0 661.0 745.4 849.0 940.0
12480 545.0 661.0 745.4 849.0 940.0
12540 545.0 661.0 745.4 849.0 940.0
12600 545.0 661.0 745.4 849.0 940.0
12660 545.0 661.0 745.4 849.0 940.0
12720 545.0 661.0 745.4 849.0 940.0
12780 545.0 661.0 745.4 849.0 940.0
12840 545.0 661.0 745.4 849.0 940.0
12900 545.0 661.0 745.4 849.0 940.0
12960 545.0 661.0 745.4 849.0 940.0
13020 545.0 661.0 745.4 849.0 940.0
13080 545.0 661.0 745.4 849.0 940.0
13140 545.0 661.0 745.4 849.0 940.0
13200 545.0 661.0 745.4 849.0 940.0
13260 545.0 661.0 745.4 849.0 940.0
13320 545.0 661.0 745.4 849.0 940.0
13380 545.0 661.0 745.4 849.0 940.0
13440 545.0 661.0 745.4 849.0 940.0
13500 545.0 661.0 745.4 849.0 940.0
13560 545.0 661.0 745.4 849.0 940.0
13620 545.0 661.0 745.4 849.0 940.0
13680 545.0 661.0 745.4 849.0 940.0
13740 545.0 661.0 745.4 849.0 940.0
13800 545.0 661.0 745.4 849.0 940.0
13860 545.0 661.0 745.4 849.0 940.0
13920 545.0 661.0 745.4 849.0 940.0
13980 545.0 661.0 745.4 849.0 940.0
14040 545.0 661.0 745.4 849.0 940.0
14100 545.0 661.0 745.4 849.0 940.0
14160 545.0 661.0 745.4 849.0 940.0
14220 545.0 661.0 745.4 849.0 940.0
14280 545.0 661.0 745.4 849.0 940.0
14340 545.0 661.0 745.4 849.0 940.0
14400 545.0 661.0 745.4 849.0 940.0
14460 545.0 661.0 745.4 849.0 940.0
14520 545.0 661.0 745.4 849.0 940.0
14580 545.0 661.0 745.4 849.0 940.0
14640 545.0 661.0 745.4 849.0 940.0
14700 545.0 661.0 745.4 849.0 940.0
14760 545.0 661.0 745.4 849.0 940.0
14820 545.0 661.0 745.4 849.0 940.0
14880 545.0 661.0 745.4 849.0 940.0
14940 545.0 661.0 745.4 849.0 940.0
15000 545.0 661.0 745.4 849.0 940.0
15060 545.0 661.0 745.4 849.0 940.0
15120 545.0 661.0 745.4 849.0 940.0
15180 545.0 661.0 745.4 849.0 940.0
15240 545.0 661.0 745.4 849.0 940.0
15300 545.0 661.0 745.4 849.0 940.0
15360 545.0 661.0 745.4 849.0 940.0
15420 545.0 661.0 745.4 849.0 940.0
15480 545.0 661.0 745.4 849.0 940.0
15540 545.0 661.0 745.4 849.0 940.0
15600 545.0 661.0 745.4 849.0 940.0
15660 545.0 661.0 745.4 849.0 940.0
15720 545.0 661.0 745.4 849.0 940.0
15780 545.0 661.0 758.0 849.0 940.0
15840 545.0 661.0 745.4 849.0 940.0
15900 545.0 661.0 745.4 849.0 940.0
15960 545.0 661.0 745.4 849.0 940.0
16020 545.0 661.0 745.4 849.0 940.0
16080 545.0 661.0 745.4 849.0 940.0
16140 545.0 661.0 745.4 849.0 940.0
16200 545.0 643.0 742.8 849.0 940.0
16260 545.0 643.0 742.8 849.0 940.0
16320 545.0 643.0 742.8 849.0 940.0
16380 545.0 643.0 742.8 849.0 940.0
16440 545.0 643.0 742.8 849.0 940.0
16500 545.0 643.0 742.8 849.0 940.0
16560 545.0 643.0 742.8 849.0 940.0
16620 545.0 643.0 742.8 849.0 940.0
16680 545.0 643.0 742.8 849.0 940.0
16740 545.0 643.0 742.8 849.0 940.0
16800 545.0 643.0 742.8 849.0 940.0
16860 545.0 643.0 742.8 849.0 940.0
16920 545.0 643.0 742.8 849.0 940.0
16980 545.0 643.0 742.8 849.0 940.0
17040 545.0 643.0 742.8 849.0 940.0
17100 545.0 643.0 742.8 849.0 940.0
17160 545.0 643.0 742.8 849.0 940.0
17220 545.0 643.0 742.8 849.0 940.0
17280 545.0 643.0 742.8 849.0 940.0
17340 545.0 643.0 742.8 849.0 940.0
17400 545.0 643.0 742.8 849.0 940.0
17460 545.0 643.0 742.8 849.0 940.0
17520 545.0 643.0 742.8 849.0 940.0
17580 545.0 643.0 742.8 849.0 940.0
17640 545.0 643.0 742.8 849.0 940.0
17700 545.0 643.0 742.8 849.0 940.0
17760 545.0 643.0 742.8 849.0 940.0
17820 545.0 643.0 742.8 849.0 940.0
17880 545.0 643.0 742.8 849.0 940.0
17940 545.0 643.0 742.8 849.0 940.0
18000 545.0 643.0 742.8 849.0 940.0
18060 545.0 643.0 742.8 849.0 940.0
18120 545.0 643.0 742.8 849.0 940.0
18180 545.0 643.0 742.8 849.0 940.0
18240 545.0 643.0 742.8 849.0 940.0
18300 545.0 643.0 742.8 849.0 940.0
18360 545.0 643.0 742.8 849.0 940.0
18420 545.0 643.0 742.8 849.0 940.0
18480 545.0 643.0 742.8 849.0 940.0
18540 545.0 643.0 742.8 849.0 940.0
18600 545.0 643.0 742.8 849.0 940.0
18660 545.0 643.0 742.8 849.0 940.0
18720 545.0 643.0 742.8 849.0 940.0
18780 545.0 643.0 742.8 849.0 940.0
18840 545.0 643.0 742.8 849.0 940.0
18900 545.0 643.0 742.8 849.0 940.0
18960 545.0 643.0 742.8 849.0 940.0
19020 545.0 643.0 742.8 849.0 940.0
19080 545.0 643.0 742.8 849.0 940.0
19140 545.0 643.0 742.8 849.0 940.0
19200 545.0 643.0 742.8 849.0 940.0
19260 545.0 643.0 742.8 849.0 940.0
19320 545.0 643.0 742.8 849.0 940.0
19380 545.0 643.0 742.8 849.0 940.0
19440 545.0 643.0 742.8 849.0 940.0
19500 545.0 643.0 742.8 849.0 940.0
19560 545.0 643.0 742.8 849.0 940.0
19620 545.0 643.0 742.8 849.0 940.0
19680 545.0 643.0 735.2 849.0 940.0
19740 545.0 643.0 735.2 849.0 940.0
19800 545.0 643.0 735.2 849.0 940.0
19860 545.0 643.0 735.2 849.0 940.0
19920 545.0 643.0 735.2 849.0 940.0
19980 545.0 643.0 735.2 849.0 940.0
20040 545.0 643.0 735.2 849.0 940.0
20100 545.0 643.0 735.2 849.0 940.0
20160 545.0 643.0 742.8 849.0 940.0
20220 545.0 643.0 742.8 849.0 940.0
20280 545.0 643.0 742.8 849.0 940.0
20340 545.0 643.0 742.8 849.0 940.0
20400 545.0 643.0 742.8 849.0 940.0
20460 545.0 643.0 742.8 849.0 940.0
20520 504.0 635.0 699.2 804.0 855.0
20580 504.0 635.0 699.2 804.0 855.0
20640 504.0 635.0 699.2 804.0 855.0
20700 504.0 635.0 699.2 804.0 855.0
20760 504.0 635.0 699.2 804.0 855.0
20820 504.0 635.0 697.9 804.0 855.0
20880 504.0 635.0 697.9 804.0 855.0
20940 504.0 635.0 697.9 804.0 855.0
21000 504.0 635.0 699.2 804.0 855.0
21060 504.0 635.0 699.2 804.0 855.0
21120 504.0 635.0 709.5 804.0 855.0
21180 504.0 635.0 699.2 804.0 855.0
21240 504.0 635.0 699.2 804.0 855.0
21300 504.0 635.0 699.2 804.0 855.0
21360 504.0 635.0 699.2 804.0 855.0
21420 504.0 635.0 699.2 804.0 855.0
21480 504.0 635.0 699.2 804.0 855.0
21540 504.0 635.0 699.2 804.0 855.0
21600 504.0 635.0 699.2 804.0 855.0
21660 504.0 635.0 699.2 804.0 855.0
21720 504.0 635.0 699.2 804.0 855.0
21780 504.0 635.0 699.2 804.0 855.0
21840 504.0 635.0 699.2 804.0 855.0
21900 504.0 635.0 699.2 804.0 855.0
21960 504.0 635.0 699.2 804.0 855.0
22020 504.0 635.0 699.2 804.0 855.0
22080 504.0 635.0 699.2 804.0 855.0
22140 504.0 635.0 699.2 804.0 855.0
22200 504.0 635.0 699.2 804.0 855.0
22260 504.0 635.0 699.2 804.0 855.0
22320 504.0 635.0 699.2 804.0 855.0
22380 504.0 635.0 699.2 804.0 855.0
22440 504.0 635.0 699.2 804.0 855.0
22500 504.0 635.0 699.2 804.0 855.0
22560 504.0 635.0 699.2 804.0 855.0
22620 504.0 635.0 698.2 794.0 855.0
22680 504.0 635.0 698.2 794.0 855.0
22740 504.0 635.0 699.2 804.0 855.0
22800 504.0 635.0 699.2 804.0 855.0
22860 504.0 635.0 699.2 804.0 855.0
22920 504.0 635.0 699.2 804.0 855.0
22980 504.0 635.0 699.2 804.0 855.0
23040 504.0 635.0 699.2 804.0 855.0
23100 504.0 635.0 699.2 804.0 855.0
23160 504.0 635.0 699.2 804.0 855.0
23220 504.0 635.0 699.2 804.0 855.0
23280 504.0 635.0 699.2 804.0 855.0
23340 504.0 635.0 699.2 804.0 855.0
23400 504.0 635.0 699.2 804.0 855.0
23460 504.0 635.0 699.2 804.0 855.0
23520 504.0 635.0 699.2 804.0 855.0
23580 504.0 635.0 699.2 804.0 855.0
23640 504.0 635.0 699.2 804.0 855.0
23700 504.0 635.0 699.2 804.0 855.0
23760 504.0 635.0 699.2 804.0 855.0
23820 504.0 635.0 699.2 804.0 855.0
23880 504.0 635.0 699.2 804.0 855.0
23940 504.0 635.0 699.2 804.0 855.0
24000 504.0 635.0 697.4 804.0 849.0
24060 504.0 635.0 697.4 804.0 849.0
24120 504.0 635.0 697.4 804.0 849.0
24180 504.0 635.0 697.4 804.0 849.0
24240 504.0 635.0 697.4 804.0 849.0
24300 504.0 635.0 697.4 804.0 849.0
24360 504.0 635.0 697.4 804.0 849.0
24420 504.0 635.0 697.4 804.0 849.0
24480 504.0 616.0 687.4 804.0 849.0
24540 504.0 581.0 683.9 804.0 849.0
24600 504.0 581.0 683.9 804.0 849.0
24660 504.0 581.0 683.9 804.0 849.0
24720 504.0 581.0 683.9 804.0 849.0
24780 504.0 581.0 683.9 804.0 849.0
24840 504.0 635.0 697.4 804.0 849.0
24900 504.0 635.0 697.4 804.0 849.0
24960 504.0 635.0 697.4 804.0 849.0
25020 504.0 635.0 697.4 804.0 849.0
25080 504.0 635.0 697.4 804.0 849.0
25140 504.0 635.0 697.4 804.0 849.0
25200 504.0 635.0 697.4 804.0 849.0
25260 504.0 635.0 697.4 804.0 849.0
25320 504.0 635.0 697.4 804.0 849.0
25380 504.0 635.0 697.4 804.0 849.0
25440 504.0 635.0 697.4 804.0 849.0
25500 504.0 635.0 697.4 804.0 849.0
25560 504.0 635.0 697.4 804.0 849.0
25620 504.0 635.0 697.4 804.0 849.0
25680 504.0 635.0 697.4 804.0 849.0
25740 504.0 635.0 697.4 804.0 849.0
25800 504.0 635.0 697.4 804.0 849.0
25860 504.0 635.0 697.4 804.0 849.0
25920 504.0 635.0 697.4 804.0 849.0
25980 504.0 635.0 697.4 804.0 849.0
26040 504.0 635.0 697.4 804.0 849.0
26100 504.0 635.0 697.4 804.0 849.0
26160 504.0 635.0 697.4 804.0 849.0
26220 504.0 635.0 697.4 804.0 849.0
26280 504.0 635.0 697.4 804.0 849.0
26340 504.0 635.0 697.4 804.0 849.0
26400 504.0 635.0 697.4 804.0 849.0
26460 504.0 635.0 697.4 804.0 849.0
26520 504.0 635.0 697.4 804.0 849.0
26580 504.0 635.0 697.4 804.0 849.0
26640 504.0 635.0 697.4 804.0 849.0
26700 504.0 635.0 697.4 804.0 849.0
26760 504.0 635.0 697.4 804.0 849.0
26820 504.0 635.0 697.4 804.0 849.0
26880 504.0 635.0 697.4 804.0 849.0
26940 504.0 635.0 697.4 804.0 849.0
27000 504.0 635.0 697.4 804.0 849.0
27060 504.0 635.0 697.4 804.0 849.0
